
Gurobi 7.0.2 (linux64, Matlab) logging started Sun Sep  2 08:56:58 2018


Gurobi 7.0.2 (linux64) logging started Sun Sep  2 08:56:58 2018

Optimize a model with 4176 rows, 1090526 columns and 11174639 nonzeros
Coefficient statistics:
  Matrix range     [1e+00, 1e+00]
  Objective range  [1e+00, 2e+00]
  Bounds range     [0e+00, 0e+00]
  RHS range        [1e+00, 1e+00]
Iteration    Objective       Primal Inf.    Dual Inf.      Time
       0    1.0340545e+03   0.000000e+00   0.000000e+00      0s

Solved in 0 iterations and 0.26 seconds
Optimal objective  1.034054491e+03
